experiment/data/lkh-res/Vrp-Set-A-n80/Vrp-Set-A-n80-lkh/0.lkh1.vrp
NAME : 0
COMMENT : CVRP Instance
TYPE : CVRP
DIMENSION : 80
EDGE_WEIGHT_TYPE : EUC_2D
CAPACITY : 100
NODE_COORD_SECTION
1	9200	9200
2	8800	5800
3	7000	600
4	5700	5900
5	0	9800
6	6100	3800
7	6500	2200
8	9100	5200
9	5900	200
10	300	5400
11	9500	3800
12	8000	2800
13	6600	4200
14	7900	7400
15	9900	2500
16	2000	4300
17	4000	300
18	5000	4200
19	9700	0
20	2100	1900
21	3600	2100
22	10000	6100
23	1100	8500
24	6900	3500
25	6900	2200
26	2900	3500
27	1400	900
28	5000	3300
29	8900	1700
30	5700	4400
31	6000	2500
32	4800	4200
33	1700	9300
34	2100	5000
35	7700	1800
36	200	400
37	6300	8300
38	6800	600
39	4100	9500
40	4800	5400
41	9800	7300
42	2600	3800
43	6900	7600
44	4000	100
45	6500	4100
46	1400	8600
47	3200	3900
48	1400	2400
49	9600	500
50	8200	9800
51	2300	8500
52	6300	6900
53	8700	1900
54	5600	7500
55	1500	6300
56	1000	4500
57	700	3000
58	3100	1100
59	3600	9300
60	5000	3100
61	4900	5200
62	3900	1000
63	7600	4000
64	8300	3400
65	3300	5100
66	0	1500
67	5200	8200
68	5200	8200
69	4600	600
70	300	2600
71	4600	8000
72	9400	3000
73	2600	7600
74	7500	9200
75	5700	5100
76	3400	2100
77	2800	8000
78	5900	6600
79	5100	1600
80	8700	1100
DEMAND_SECTION
1	0
2	24
3	22
4	23
5	5
6	11
7	23
8	26
9	9
10	23
11	9
12	14
13	16
14	12
15	2
16	2
17	6
18	20
19	26
20	12
21	15
22	13
23	26
24	17
25	7
26	12
27	4
28	4
29	20
30	10
31	9
32	2
33	9
34	1
35	2
36	2
37	12
38	14
39	23
40	21
41	13
42	13
43	23
44	3
45	6
46	23
47	11
48	2
49	7
50	13
51	10
52	3
53	6
54	13
55	2
56	14
57	7
58	21
59	7
60	22
61	13
62	22
63	18
64	22
65	6
66	2
67	11
68	5
69	9
70	9
71	5
72	12
73	2
74	12
75	19
76	6
77	14
78	2
79	2
80	24
DEPOT_SECTION
1
-1
EOF
