experiment/data/lkh-res/Vrp-Set-A-n80/Vrp-Set-A-n80-lkh/0.lkh1.log
PARAMETER_FILE = baseline_results/cvrp_lkh/Vrp-Set-A-n80/Vrp-Set-A-n80-lkh/0.lkh1.par
Reading PROBLEM_FILE: "baseline_results/cvrp_lkh/Vrp-Set-A-n80/Vrp-Set-A-n80-lkh/0.lkh1.vrp" ... done
ASCENT_CANDIDATES = 50
BACKBONE_TRIALS = 0
BACKTRACKING = NO
# BWTSP =
# CANDIDATE_FILE =
CANDIDATE_SET_TYPE = ALPHA
# DISTANCE =
DEPOT = 1
# EDGE_FILE =
EXCESS = 0.0125
EXTERNAL_SALESMEN = 0
EXTRA_CANDIDATES = 0 
EXTRA_CANDIDATE_SET_TYPE = QUADRANT
GAIN23 = NO
GAIN_CRITERION = YES
INITIAL_PERIOD = 100
INITIAL_STEP_SIZE = 1
INITIAL_TOUR_ALGORITHM = WALK
# INITIAL_TOUR_FILE = 
INITIAL_TOUR_FRACTION = 1.000
# INPUT_TOUR_FILE = 
KICK_TYPE = 4
KICKS = 1
# MAX_BREADTH =
MAKESPAN = NO
MAX_CANDIDATES = 5 
MAX_SWAPS = 0
MAX_TRIALS = 10000
# MERGE_TOUR_FILE =
MOVE_TYPE = 5 SPECIAL
MTSP_MIN_SIZE = 1
MTSP_MAX_SIZE = 79
# MTSP_SOLUTION_FILE = 
# NONSEQUENTIAL_MOVE_TYPE = 5
# OPTIMUM =
OUTPUT_TOUR_FILE = baseline_results/cvrp_lkh/Vrp-Set-A-n80/Vrp-Set-A-n80-lkh/0.lkh1.tour
PATCHING_A = 1 
PATCHING_C = 0 
# PI_FILE = 
POPMUSIC_INITIAL_TOUR = NO
POPMUSIC_MAX_NEIGHBORS = 5
POPMUSIC_SAMPLE_SIZE = 10
POPMUSIC_SOLUTIONS = 50
POPMUSIC_TRIALS = 1
POPULATION_SIZE = 10
PRECISION = 100
PROBLEM_FILE = baseline_results/cvrp_lkh/Vrp-Set-A-n80/Vrp-Set-A-n80-lkh/0.lkh1.vrp
RECOMBINATION = IPT
RESTRICTED_SEARCH = YES
RUNS = 1
SALESMEN = 10
SCALE = 1
SEED = 1234
# SINTEF_SOLUTION_FILE = 
STOP_AT_OPTIMUM = YES
SUBGRADIENT = YES
# SUBPROBLEM_SIZE =
# SUBPROBLEM_TOUR_FILE = 
SUBSEQUENT_MOVE_TYPE = 5 SPECIAL
SUBSEQUENT_PATCHING = YES
# TIME_LIMIT =
# TOTAL_TIME_LIMIT =
# TOUR_FILE = 
TRACE_LEVEL = 1
VEHICLES = 10

Lower bound = 116065.9, Ascent time = 0.03 sec.
Cand.min = 5, Cand.avg = 5.0, Cand.max = 5
Preprocessing time = 0.03 sec.
* 1: Cost = 0_192783, Time = 0.02 sec. 
Writing OUTPUT_TOUR_FILE: "baseline_results/cvrp_lkh/Vrp-Set-A-n80/Vrp-Set-A-n80-lkh/0.lkh1.tour" ... done
* 2: Cost = 0_191940, Time = 0.02 sec. 
Writing OUTPUT_TOUR_FILE: "baseline_results/cvrp_lkh/Vrp-Set-A-n80/Vrp-Set-A-n80-lkh/0.lkh1.tour" ... done
* 3: Cost = 0_185256, Time = 0.03 sec. 
Writing OUTPUT_TOUR_FILE: "baseline_results/cvrp_lkh/Vrp-Set-A-n80/Vrp-Set-A-n80-lkh/0.lkh1.tour" ... done
* 4: Cost = 0_184213, Time = 0.04 sec. 
Writing OUTPUT_TOUR_FILE: "baseline_results/cvrp_lkh/Vrp-Set-A-n80/Vrp-Set-A-n80-lkh/0.lkh1.tour" ... done
* 6: Cost = 0_183578, Time = 0.05 sec. 
Writing OUTPUT_TOUR_FILE: "baseline_results/cvrp_lkh/Vrp-Set-A-n80/Vrp-Set-A-n80-lkh/0.lkh1.tour" ... done
* 7: Cost = 0_183024, Time = 0.05 sec. 
Writing OUTPUT_TOUR_FILE: "baseline_results/cvrp_lkh/Vrp-Set-A-n80/Vrp-Set-A-n80-lkh/0.lkh1.tour" ... done
* 9: Cost = 0_182915, Time = 0.07 sec. 
Writing OUTPUT_TOUR_FILE: "baseline_results/cvrp_lkh/Vrp-Set-A-n80/Vrp-Set-A-n80-lkh/0.lkh1.tour" ... done
* 11: Cost = 0_182907, Time = 0.09 sec. 
Writing OUTPUT_TOUR_FILE: "baseline_results/cvrp_lkh/Vrp-Set-A-n80/Vrp-Set-A-n80-lkh/0.lkh1.tour" ... done
* 12: Cost = 0_182667, Time = 0.09 sec. 
Writing OUTPUT_TOUR_FILE: "baseline_results/cvrp_lkh/Vrp-Set-A-n80/Vrp-Set-A-n80-lkh/0.lkh1.tour" ... done
* 16: Cost = 0_182465, Time = 0.10 sec. 
Writing OUTPUT_TOUR_FILE: "baseline_results/cvrp_lkh/Vrp-Set-A-n80/Vrp-Set-A-n80-lkh/0.lkh1.tour" ... done
* 23: Cost = 0_179572, Time = 0.14 sec. 
Writing OUTPUT_TOUR_FILE: "baseline_results/cvrp_lkh/Vrp-Set-A-n80/Vrp-Set-A-n80-lkh/0.lkh1.tour" ... done
* 24: Cost = 0_178884, Time = 0.14 sec. 
Writing OUTPUT_TOUR_FILE: "baseline_results/cvrp_lkh/Vrp-Set-A-n80/Vrp-Set-A-n80-lkh/0.lkh1.tour" ... done
* 57: Cost = 0_178853, Time = 0.26 sec. 
Writing OUTPUT_TOUR_FILE: "baseline_results/cvrp_lkh/Vrp-Set-A-n80/Vrp-Set-A-n80-lkh/0.lkh1.tour" ... done
* 233: Cost = 0_178780, Time = 1.07 sec. 
Writing OUTPUT_TOUR_FILE: "baseline_results/cvrp_lkh/Vrp-Set-A-n80/Vrp-Set-A-n80-lkh/0.lkh1.tour" ... done
* 389: Cost = 0_178542, Time = 1.75 sec. 
Writing OUTPUT_TOUR_FILE: "baseline_results/cvrp_lkh/Vrp-Set-A-n80/Vrp-Set-A-n80-lkh/0.lkh1.tour" ... done
* 2192: Cost = 0_178383, Time = 8.04 sec. 
Writing OUTPUT_TOUR_FILE: "baseline_results/cvrp_lkh/Vrp-Set-A-n80/Vrp-Set-A-n80-lkh/0.lkh1.tour" ... done
* 7010: Cost = 0_178341, Time = 27.77 sec. 
Writing OUTPUT_TOUR_FILE: "baseline_results/cvrp_lkh/Vrp-Set-A-n80/Vrp-Set-A-n80-lkh/0.lkh1.tour" ... done
* 7017: Cost = 0_178099, Time = 27.81 sec. 
Writing OUTPUT_TOUR_FILE: "baseline_results/cvrp_lkh/Vrp-Set-A-n80/Vrp-Set-A-n80-lkh/0.lkh1.tour" ... done
* 7020: Cost = 0_177604, Time = 27.84 sec. 
Writing OUTPUT_TOUR_FILE: "baseline_results/cvrp_lkh/Vrp-Set-A-n80/Vrp-Set-A-n80-lkh/0.lkh1.tour" ... done
* 7061: Cost = 0_176914, Time = 28.05 sec. 
Writing OUTPUT_TOUR_FILE: "baseline_results/cvrp_lkh/Vrp-Set-A-n80/Vrp-Set-A-n80-lkh/0.lkh1.tour" ... done
* 7098: Cost = 0_176869, Time = 28.25 sec. 
Writing OUTPUT_TOUR_FILE: "baseline_results/cvrp_lkh/Vrp-Set-A-n80/Vrp-Set-A-n80-lkh/0.lkh1.tour" ... done
* 8375: Cost = 0_176651, Time = 34.84 sec. 
Writing OUTPUT_TOUR_FILE: "baseline_results/cvrp_lkh/Vrp-Set-A-n80/Vrp-Set-A-n80-lkh/0.lkh1.tour" ... done
Population:
  1: 0_176651
Run 1: Cost = 0_176651, Time = 43.59 sec. 

Successes/Runs = 0/1 
Cost.min = 176651, Cost.avg = 176651.00, Cost.max = 176651
Gap.min = 0.0000%, Gap.avg = 0.0000%, Gap.max = 0.0000%
Penalty.min = 0, Penalty.avg = 0.00, Penalty.max = 0
Trials.min = 10000, Trials.avg = 10000.0, Trials.max = 10000
Time.min = 43.59 sec., Time.avg = 43.59 sec., Time.max = 43.59 sec.
Time.total = 43.62 sec.
  Size.min = 4, Size.max = 14, Penalty = 0
  Cost.min = 8576, Cost.max = 28935, Cost.sum = 176651
Best CVRP solution:
  Cost = 0_176651

