experiment/data/lkh-res/Vrp-Set-A-n80/Vrp-Set-A-n80-lkh/0.lkh1.tour
NAME : 0.176651.tour
COMMENT : Length = 176651
COMMENT : Found by LKH-3 [Keld Helsgaun] Tue Apr  9 00:52:27 2024
TYPE : TOUR
DIMENSION : 89
TOUR_SECTION
1
24
7
25
12
64
11
86
47
26
42
56
10
55
73
39
89
50
74
37
68
67
54
43
83
59
33
5
23
46
51
77
71
81
65
34
16
48
57
70
66
36
27
20
58
76
21
30
88
52
78
4
40
61
75
14
82
41
22
8
2
87
18
32
28
60
6
45
13
63
85
53
29
80
19
49
15
72
84
35
3
38
9
69
44
17
62
79
31
-1
EOF
